100 5500
2 35
2 14
1 39
2 28
1 47
2 7
1 35
2 36
1 26
1 29
1 5
1 34
2 34
2 4
2 11
1 7
2 6
2 22
1 30
2 47
2 3
2 40
2 19
2 19
2 46
2 8
2 48
1 44
2 42
2 2
2 41
1 6
2 3
2 31
2 33
1 23
1 9
2 20
1 41
2 25
2 16
2 17
1 23
1 9
2 26
2 42
2 30
1 24
1 43
2 36
2 31
1 46
1 11
1 13
2 17
2 15
2 21
2 39
1 45
2 21
2 45
2 27
2 2
1 37
1 10
2 27
1 44
1 18
1 38
1 8
1 29
2 10
2 28
1 15
2 12
2 16
2 20
1 32
2 48
1 38
1 1
2 37
2 32
2 40
1 49
2 49
2 12
2 33
2 22
2 50
2 4
2 1
1 24
2 50
2 5
2 25
1 14
1 43
2 13
2 18
